Route #1: 22 61 54 12 41 25 8 59 60 
Route #2: 34 39 9 47 
Route #3: 37 62 2 51 21 23 38 10 
Route #4: 57 14 58 17 24 43 11 
Route #5: 55 44 16 40 31 13 
Route #6: 1 18 50 53 42 
Route #7: 46 30 56 4 49 3 
Route #8: 29 28 32 48 5 
Route #9: 7 45 20 36 27 
Route #10: 15 52 19 35 6 26 33 
cost 1818.16